sing20130406.00
TTAA  56001 48698
99004 27059 25005 00051 27659 22504 92739 23225 28526
85474 19222 28028 70123 10220 31514 50585 04121 05518
40759 13534 10019 30972 27718 13017 25100 37722 13015
20250 50724 11524 15430 66917 12523 10663 85508 08530
88999
77999=
=
TTDD  5600/ 48698
11951 86701 22917 87918 33899 85741 44856 81319 55810
80968 66763 781// 77758 781//
21212 11972 07028 22951 07027 33928 07030 44907 08527
55870 12040 66826 13512 77807 16019 88772 27006 99758
27012=
